WARNING: for repeatability, setting FPU to use double precision
============================[ Problem Statistics ]=============================
|                                                                             |
|  Number of variables:        227631                                         |
|  Number of clauses:          530560                                         |
|  Parse time:                   0.17 s                                       |
|                                                                             |
============================[ Search Statistics ]==============================
| Conflicts |          ORIGINAL         |          LEARNT          | Progress |
|           |    Vars  Clauses Literals |    Limit  Clauses Lit/Cl |          |
===============================================================================
|       100 |  126246   509265  1143976 |   186730      100     10 | 44.539 % |
|       250 |  126246   509265  1143976 |   205403      250     31 | 44.539 % |
|       475 |  126246   509265  1143976 |   225943      475     77 | 44.539 % |
|       812 |  126246   509265  1143976 |   248538      812     74 | 44.539 % |
===============================================================================
restarts              : 7
conflicts             : 1142           (1560 /sec)
decisions             : 22624          (0.00 % random) (30905 /sec)
propagations          : 3704427        (5060382 /sec)
conflict literals     : 80897          (6.89 % deleted)
Memory used           : 61.00 MB
CPU time              : 0.732045 s

SATISFIABLE
